n_res = 4;
rc = [ 18, 14, 20, 16 ];
n_tasks = 60;
d = [ 5, 4, 4, 8, 8, 2, 7, 5, 2, 8, 1, 6, 7, 1, 6, 1, 3, 1, 6, 1, 9, 3, 5, 7, 6, 9, 10, 7, 10, 2, 3, 9, 9, 2, 5, 8, 8, 9, 5, 1, 6, 3, 10, 10, 1, 8, 6, 10, 8, 5, 2, 2, 8, 5, 9, 10, 8, 4, 5, 4 ];
rr = [| 4, 10, 6, 0, 6, 0, 6, 0, 9, 0, 0, 1, 6, 5, 0, 10, 8, 10, 0, 4, 1, 0, 8, 1, 0, 7, 0, 1, 5, 2, 9, 3, 10, 0, 0, 0, 8, 0, 5, 0, 2, 0, 1, 8, 0, 0, 0, 5, 2, 0, 3, 2, 5, 0, 6, 0, 5, 6, 2, 0
      | 0, 1, 0, 0, 1, 0, 0, 7, 0, 0, 4, 0, 0, 10, 5, 9, 10, 0, 0, 0, 10, 0, 2, 0, 10, 5, 0, 0, 0, 0, 5, 6, 0, 8, 2, 10, 0, 0, 0, 8, 0, 4, 5, 0, 2, 0, 8, 0, 0, 0, 4, 0, 0, 10, 0, 2, 0, 0, 9, 0
      | 0, 0, 0, 0, 10, 0, 0, 10, 0, 7, 0, 8, 0, 0, 6, 0, 0, 7, 3, 5, 6, 8, 6, 0, 0, 0, 10, 4, 2, 0, 10, 0, 10, 6, 0, 4, 0, 2, 0, 5, 7, 0, 0, 6, 9, 0, 1, 0, 5, 1, 0, 0, 0, 9, 6, 9, 5, 0, 0, 9
      | 2, 0, 0, 5, 0, 4, 0, 9, 10, 0, 0, 8, 0, 6, 0, 4, 8, 0, 1, 0, 0, 5, 0, 4, 1, 2, 8, 2, 0, 0, 0, 0, 3, 2, 0, 0, 0, 0, 0, 0, 0, 10, 5, 4, 4, 7, 3, 7, 0, 0, 0, 0, 0, 0, 6, 0, 0, 0, 0, 3 |];
suc = [ { 4, 44 },
       { 6, 14, 30 },
       { 7, 17, 22 },
       { 5, 51 },
       { 20, 31 },
       { 15, 36, 38 },
       { 8, 9, 10 },
       { 13, 25 },
       { 11, 33 },
       { 12 },
       { 26, 37 },
       { 43 },
       { 18 },
       { 23, 59 },
       { 16, 21 },
       { 37 },
       { 19, 26, 40 },
       { 32 },
       { 45 },
       { 27, 34, 41 },
       { 28, 43, 48 },
       { 37 },
       { 24 },
       { 31, 46, 49 },
       { 41 },
       { 29, 46 },
       { 55 },
       { 35, 40 },
       { 36 },
       { 36, 41 },
       { 52 },
       { 53 },
       { 57 },
       { 35, 42 },
       { 39 },
       { 54 },
       { 44 },
       { 55 },
       { 58 },
       { 56 },
       { 47 },
       { 46, 54 },
       { 49 },
       { 45 },
       { 50 },
       { 60 },
       { 57 },
       { 56 },
       { 56 },
       { 60 },
       { 58 },
       { 58 },
       { 54, 55 },
       { 57 },
       { 59 },
       { 60 },
       { 59 },
       {  },
       {  },
       {  } ];
